c 
c G(k,n,p) graph
c graph gen seed     : 28582
c number of vertices : 30
c max number of edges: 500
c number of classes  : 2
c edge density       : 0.600000
c edge probability   : 1.200000
c data structure     : dense
c
c           Graph Stats
c number of vertices  : 30
c nonisolated vertices: 30
c number of edges     : 224
c edge density        : 0.514943
c max degree          : 16
c avg degree          : 14.93
c min degree          : 14
p col 30 224
e 1 6
e 1 8
e 1 9
e 1 10
e 1 12
e 1 15
e 1 16
e 1 19
e 1 20
e 1 21
e 1 23
e 1 27
e 1 28
e 2 3
e 2 4
e 2 5
e 2 7
e 2 11
e 2 13
e 2 14
e 2 17
e 2 18
e 2 22
e 2 24
e 2 25
e 2 26
e 2 29
e 2 30
e 3 4
e 3 5
e 3 7
e 3 11
e 3 13
e 3 14
e 3 17
e 3 18
e 3 22
e 3 24
e 3 25
e 3 26
e 3 29
e 3 30
e 4 5
e 4 7
e 4 11
e 4 13
e 4 14
e 4 17
e 4 18
e 4 22
e 4 24
e 4 25
e 4 26
e 4 29
e 4 30
e 5 7
e 5 11
e 5 13
e 5 14
e 5 17
e 5 18
e 5 22
e 5 24
e 5 25
e 5 26
e 5 29
e 5 30
e 6 8
e 6 9
e 6 10
e 6 12
e 6 15
e 6 16
e 6 19
e 6 20
e 6 21
e 6 23
e 6 27
e 6 28
e 7 11
e 7 13
e 7 14
e 7 17
e 7 18
e 7 22
e 7 24
e 7 25
e 7 26
e 7 29
e 7 30
e 8 9
e 8 10
e 8 12
e 8 15
e 8 16
e 8 19
e 8 20
e 8 21
e 8 23
e 8 27
e 8 28
e 9 10
e 9 12
e 9 15
e 9 16
e 9 19
e 9 20
e 9 21
e 9 23
e 9 27
e 9 28
e 10 12
e 10 15
e 10 16
e 10 19
e 10 20
e 10 21
e 10 23
e 10 27
e 10 28
e 11 13
e 11 14
e 11 17
e 11 18
e 11 22
e 11 24
e 11 25
e 11 26
e 11 29
e 11 30
e 12 15
e 12 16
e 12 19
e 12 20
e 12 21
e 12 23
e 12 27
e 12 28
e 13 14
e 13 17
e 13 18
e 13 22
e 13 24
e 13 25
e 13 26
e 13 29
e 13 30
e 14 17
e 14 18
e 14 22
e 14 24
e 14 25
e 14 26
e 14 29
e 14 30
e 15 16
e 15 19
e 15 20
e 15 21
e 15 23
e 15 27
e 15 28
e 16 19
e 16 20
e 16 21
e 16 23
e 16 27
e 16 28
e 17 18
e 17 22
e 17 24
e 17 25
e 17 26
e 17 29
e 17 30
e 18 22
e 18 24
e 18 25
e 18 26
e 18 29
e 18 30
e 19 20
e 19 21
e 19 23
e 19 27
e 19 28
e 20 21
e 20 23
e 20 27
e 20 28
e 21 23
e 21 27
e 21 28
e 22 24
e 22 25
e 22 26
e 22 29
e 22 30
e 23 27
e 23 28
e 24 25
e 24 26
e 24 29
e 24 30
e 25 26
e 25 29
e 25 30
e 26 29
e 26 30
e 27 28
e 29 30
